SECTION Graph 
Nodes 29
Edges 28
E 5 24 2497598
E 6 21 1454911
E 16 21 622034
E 17 22 419728
E 1 23 705890
E 1 21 1624028
E 4 23 1726436
E 4 22 592431
E 11 24 1684097
E 24 25 394509
E 15 25 1710808
E 15 22 1570573
E 3 12 1308559
E 3 25 571082
E 18 23 1878338
E 12 26 1003069
E 10 28 461740
E 26 27 1470906
E 27 28 138068
E 14 28 1487262
E 19 26 460670
E 13 19 278933
E 8 29 1842790
E 8 27 919439
E 2 20 1740981
E 9 29 312266
E 9 20 1937139
E 7 29 2889601
END 

SECTION Terminals 
Terminals 20
TP 1 11
TP 2 12
TP 3 13
TP 4 14
TP 5 15
TP 6 16
TP 7 17
TP 8 18
TP 9 19
TP 10 20
END 
